c WARNING: for repeatability, setting FPU to use double precision
d VARIABLES            216460       
d CONSTRAINTS          946733       
c ============================[ Problem Statistics ]=============================
c |                                                                             |
c |  Number of variables:        216460                                         |
c |  Number of clauses:          946733                                         |
c |  Parse time:                   0.15 s                                       |
c |                                                                             |
c ============================[ Search Statistics ]==============================
c | Conflicts |          ORIGINAL         |          LEARNT          | Progress |
c |           |    Vars  Clauses Literals |    Limit  Clauses Lit/Cl |          |
c ===============================================================================
c |       100 |  180209   854291  2070141 |   313240      100     24 | 16.747 % |
c |       250 |  180209   854291  2070141 |   344564      250     28 | 16.747 % |
c |       475 |  180209   854291  2070141 |   379020      475     28 | 16.747 % |
c |       812 |  180209   854291  2070141 |   416922      812     44 | 16.747 % |
c |      1318 |  180209   854291  2070141 |   458614     1318     62 | 16.747 % |
c |      2077 |  180209   854291  2070141 |   504476     2077     74 | 16.747 % |
c |      3216 |  180209   854291  2070141 |   554923     3216    107 | 16.747 % |
c |      4924 |  180209   854291  2070141 |   610416     4924    110 | 16.747 % |
c |      7486 |  180209   854291  2070141 |   671457     7486    116 | 16.747 % |
c |     11330 |  180209   854291  2070141 |   738603    11330    117 | 16.747 % |
c |     17096 |  180209   854291  2070141 |   812463    17096    123 | 16.747 % |
c |     25745 |  180209   854291  2070141 |   893710    25745    142 | 16.747 % |
c |     38719 |  180209   854291  2070141 |   983081    38719    155 | 16.747 % |
c |     58180 |  180209   854291  2070141 |  1081389    58180    169 | 16.747 % |
c |     87372 |  180209   854291  2070141 |  1189528    87372    167 | 16.747 % |
c |    131161 |  180209   854291  2070141 |  1308481   131161    166 | 16.747 % |
c |    196845 |  180209   854291  2070141 |  1439329   196845    173 | 16.747 % |
c |    295371 |  180209   854291  2070141 |  1583262   295371    167 | 16.747 % |
c ===============================================================================
c restarts              : 893
c conflicts             : 372648         (1321 /sec)
c decisions             : 1639052        (0.00 % random) (5811 /sec)
c propagations          : 1098413303     (3893955 /sec)
c conflict literals     : 61948896       (22.69 % deleted)
d RESTARTS             893
d FAILURES             372648       
d NODES                1639052      
d BACKTRACKS           1639052      
d PROPAGATIONS         1098413303   
d NOGOODSIZE           166.24 
d MEMORY               423.00 
d TIME                 282.082 

s SATISFIABLE
